n_couriers = 2;
n_items = 6;
max_load = [15, 10];
size_item = [3, 2, 6, 5, 4, 4];
all_distances = [|0, 2, 3, 4, 3, 4, 4|2, 0, 3, 4, 5, 6, 6|3, 3, 0, 1, 4, 5, 7|4, 4, 1, 0, 5, 6, 6|2, 4, 4, 5, 0, 3, 3|4, 6, 7, 8, 3, 0, 2|4, 6, 7, 8, 3, 2, 0|];